k = 10;
b = 3;
AtomicConstraints =  [|
7, 6|
	8, 6|
	8, 10|
	5, 4|];
DisjunctiveConstraints =  [|2, 1, 2, 3|];
SoftAtomicConstraints =  [|
1, 2|
2, 3|
10, 6|
8, 7|
9, 8|
5, 9|
4, 10|];
DirectSuccessors =  [];
